p cnf 11 ..

c hotesse
1 8 5 10 0
-1 -5 0
-1 -8 0
-1 -10 0
-5 -8 0
-5 -10 0
-8 -10 0

c caissier
2 6 8 10 0
-2 -6 0
-2 -8 0
-2 -10 0
-6 -8 0
-6 -10 0
-8 -10 0

c secretaire
3 7 9 10 0
-3 -7 0
-3 -9 0
-3 -10 0
-7 -9 0
-7 -10 0
-9 -10 0

c directeur
4 5 8 11 0
-4 -5 0
-4 -8 0
-4 -11 0
-5 -8 0
-5 -11 0
-8 -11 0

c pour chaque détail, un témoin l'a décrit correctement
10 11 0
8 9 0
5 6 7 0
1 2 3 4 0